objective value:                                -3387
t_x3                                                1 	(obj:-100)
t_x6                                                1 	(obj:-100)
t_x13                                               1 	(obj:-100)
t_x14                                               1 	(obj:-100)
t_x17                                               1 	(obj:-100)
t_x19                                               1 	(obj:-100)
t_x21                                               1 	(obj:-100)
t_x23                                               1 	(obj:-100)
t_x24                                               1 	(obj:-100)
t_x27                                               1 	(obj:-100)
t_x30                                               1 	(obj:-100)
t_x32                                               1 	(obj:-100)
t_x37                                               1 	(obj:-100)
t_x42                                               1 	(obj:-100)
t_x44                                               1 	(obj:-100)
t_x48                                               1 	(obj:-100)
t_x61                                               1 	(obj:-100)
t_x66                                               1 	(obj:-100)
t_x73                                               1 	(obj:-100)
t_x79                                               1 	(obj:-100)
t_x80                                               1 	(obj:-100)
t_x85                                               1 	(obj:-100)
t_x99                                               1 	(obj:-100)
t_x101                                              1 	(obj:-100)
t_x104                                              1 	(obj:-100)
t_x110                                              1 	(obj:-100)
t_x123                                              1 	(obj:-100)
t_x124                                              1 	(obj:-100)
t_x125                                              1 	(obj:-100)
t_x129                                              1 	(obj:-100)
t_x131                                              1 	(obj:-100)
t_x132                                              1 	(obj:-100)
t_x135                                              1 	(obj:-100)
t_x144                                              1 	(obj:-100)
t_x145                                              1 	(obj:-100)
t_x148                                              1 	(obj:-100)
t_x150                                              1 	(obj:-100)
t_y131_143                                          1 	(obj:1)
t_y21_28                                            1 	(obj:1)
t_y46_135                                           1 	(obj:1)
t_y14_108                                           1 	(obj:1)
t_y144_145                                          1 	(obj:1)
t_y6_72                                             1 	(obj:1)
t_y31_80                                            1 	(obj:1)
t_y32_113                                           1 	(obj:1)
t_y62_132                                           1 	(obj:1)
t_y22_48                                            1 	(obj:1)
t_y114_135                                          1 	(obj:1)
t_y50_144                                           1 	(obj:1)
t_y124_143                                          1 	(obj:1)
t_y43_129                                           1 	(obj:1)
t_y45_104                                           1 	(obj:1)
t_y118_129                                          1 	(obj:1)
t_y39_85                                            1 	(obj:1)
t_y2_99                                             1 	(obj:1)
t_y19_96                                            1 	(obj:1)
t_y122_144                                          1 	(obj:1)
t_y13_150                                           1 	(obj:1)
t_y110_124                                          1 	(obj:1)
t_y58_110                                           1 	(obj:1)
t_y27_143                                           1 	(obj:1)
t_y55_125                                           1 	(obj:1)
t_y66_119                                           1 	(obj:1)
t_y99_134                                           1 	(obj:1)
t_y6_145                                            1 	(obj:1)
t_y12_124                                           1 	(obj:1)
t_y61_100                                           1 	(obj:1)
t_y142_150                                          1 	(obj:1)
t_y24_80                                            1 	(obj:1)
t_y75_124                                           1 	(obj:1)
t_y110_148                                          1 	(obj:1)
t_y72_80                                            1 	(obj:1)
t_y83_125                                           1 	(obj:1)
t_y9_101                                            1 	(obj:1)
t_y24_139                                           1 	(obj:1)
t_y5_131                                            1 	(obj:1)
t_y61_125                                           1 	(obj:1)
t_y31_144                                           1 	(obj:1)
t_y125_128                                          1 	(obj:1)
t_y45_85                                            1 	(obj:1)
t_y27_43                                            1 	(obj:1)
t_y6_27                                             1 	(obj:1)
t_y99_123                                           1 	(obj:1)
t_y13_75                                            1 	(obj:1)
t_y48_81                                            1 	(obj:1)
t_y23_31                                            1 	(obj:1)
t_y135_140                                          1 	(obj:1)
t_y5_79                                             1 	(obj:1)
t_y55_85                                            1 	(obj:1)
t_y13_63                                            1 	(obj:1)
t_y31_85                                            1 	(obj:1)
t_y35_110                                           1 	(obj:1)
t_y123_129                                          1 	(obj:1)
t_y52_131                                           1 	(obj:1)
t_y13_25                                            1 	(obj:1)
t_y5_150                                            1 	(obj:1)
t_y23_62                                            1 	(obj:1)
t_y145_146                                          1 	(obj:1)
t_y58_101                                           1 	(obj:1)
t_y44_80                                            1 	(obj:1)
t_y42_96                                            1 	(obj:1)
t_y5_124                                            1 	(obj:1)
t_y30_135                                           1 	(obj:1)
t_y61_143                                           1 	(obj:1)
t_y96_125                                           1 	(obj:1)
t_y13_99                                            1 	(obj:1)
t_y5_6                                              1 	(obj:1)
t_y23_55                                            1 	(obj:1)
t_y73_119                                           1 	(obj:1)
t_y9_37                                             1 	(obj:1)
t_y27_95                                            1 	(obj:1)
t_y17_37                                            1 	(obj:1)
t_y85_153                                           1 	(obj:1)
t_y46_110                                           1 	(obj:1)
t_y80_148                                           1 	(obj:1)
t_y52_145                                           1 	(obj:1)
t_y6_125                                            1 	(obj:1)
t_y30_119                                           1 	(obj:1)
t_y69_123                                           1 	(obj:1)
t_y142_148                                          1 	(obj:1)
t_y73_120                                           1 	(obj:1)
t_y54_131                                           1 	(obj:1)
t_y113_135                                          1 	(obj:1)
t_y48_92                                            1 	(obj:1)
t_y53_80                                            1 	(obj:1)
t_y79_122                                           1 	(obj:1)
t_y6_82                                             1 	(obj:1)
t_y13_141                                           1 	(obj:1)
t_y85_125                                           1 	(obj:1)
t_y87_148                                           1 	(obj:1)
t_y32_93                                            1 	(obj:1)
t_y131_138                                          1 	(obj:1)
t_y93_129                                           1 	(obj:1)
t_y132_141                                          1 	(obj:1)
t_y0_73                                             1 	(obj:1)
t_y15_73                                            1 	(obj:1)
t_y17_23                                            1 	(obj:1)
t_y6_51                                             1 	(obj:1)
t_y92_132                                           1 	(obj:1)
t_y17_41                                            1 	(obj:1)
t_y31_73                                            1 	(obj:1)
t_y77_79                                            1 	(obj:1)
t_y71_144                                           1 	(obj:1)
t_y11_21                                            1 	(obj:1)
t_y42_93                                            1 	(obj:1)
t_y64_123                                           1 	(obj:1)
t_y97_124                                           1 	(obj:1)
t_y124_140                                          1 	(obj:1)
t_y21_24                                            1 	(obj:1)
t_y44_143                                           1 	(obj:1)
t_y100_124                                          1 	(obj:1)
t_y6_42                                             1 	(obj:1)
t_y129_143                                          1 	(obj:1)
t_y13_92                                            1 	(obj:1)
t_y83_148                                           1 	(obj:1)
t_y0_21                                             1 	(obj:1)
t_y44_82                                            1 	(obj:1)
t_y41_80                                            1 	(obj:1)
t_y50_61                                            1 	(obj:1)
t_y101_143                                          1 	(obj:1)
t_y6_120                                            1 	(obj:1)
t_y30_114                                           1 	(obj:1)
t_y13_97                                            1 	(obj:1)
t_y32_39                                            1 	(obj:1)
t_y51_125                                           1 	(obj:1)
t_y37_50                                            1 	(obj:1)
t_y19_48                                            1 	(obj:1)
t_y61_90                                            1 	(obj:1)
t_y98_110                                           1 	(obj:1)
t_y81_101                                           1 	(obj:1)
t_y15_66                                            1 	(obj:1)
t_y14_100                                           1 	(obj:1)
t_y123_124                                          1 	(obj:1)
t_y82_135                                           1 	(obj:1)
t_y85_138                                           1 	(obj:1)
t_y31_66                                            1 	(obj:1)
t_y6_80                                             1 	(obj:1)
t_y3_110                                            1 	(obj:1)
t_y19_83                                            1 	(obj:1)
t_y48_138                                           1 	(obj:1)
t_y2_3                                              1 	(obj:1)
t_y15_135                                           1 	(obj:1)
t_y37_150                                           1 	(obj:1)
t_y6_140                                            1 	(obj:1)
t_y32_53                                            1 	(obj:1)
t_y75_79                                            1 	(obj:1)
t_y27_123                                           1 	(obj:1)
t_y6_75                                             1 	(obj:1)
t_y13_132                                           1 	(obj:1)
t_y44_63                                            1 	(obj:1)
t_y55_79                                            1 	(obj:1)
t_y19_62                                            1 	(obj:1)
t_y77_129                                           1 	(obj:1)
t_y55_101                                           1 	(obj:1)
t_y61_114                                           1 	(obj:1)
t_y23_92                                            1 	(obj:1)
t_y75_131                                           1 	(obj:1)
t_y32_76                                            1 	(obj:1)
t_y61_108                                           1 	(obj:1)
t_y124_142                                          1 	(obj:1)
t_y72_124                                           1 	(obj:1)
t_y15_80                                            1 	(obj:1)
t_y32_145                                           1 	(obj:1)
t_y110_140                                          1 	(obj:1)
t_y21_113                                           1 	(obj:1)
t_y37_55                                            1 	(obj:1)
t_y3_98                                             1 	(obj:1)
t_y96_148                                           1 	(obj:1)
t_y149_150                                          1 	(obj:1)
t_y64_145                                           1 	(obj:1)
t_y19_45                                            1 	(obj:1)
t_y101_151                                          1 	(obj:1)
t_y72_99                                            1 	(obj:1)
t_y21_47                                            1 	(obj:1)
t_y37_69                                            1 	(obj:1)
t_y42_142                                           1 	(obj:1)
t_y79_83                                            1 	(obj:1)
t_y54_101                                           1 	(obj:1)
t_y17_85                                            1 	(obj:1)
t_y98_131                                           1 	(obj:1)
t_y79_103                                           1 	(obj:1)
t_y61_132                                           1 	(obj:1)
t_y23_82                                            1 	(obj:1)
t_y128_150                                          1 	(obj:1)
t_y2_6                                              1 	(obj:1)
t_y48_100                                           1 	(obj:1)
t_y86_110                                           1 	(obj:1)
t_y80_143                                           1 	(obj:1)
t_y3_118                                            1 	(obj:1)
t_y21_87                                            1 	(obj:1)
t_y36_145                                           1 	(obj:1)
t_y32_81                                            1 	(obj:1)
t_y30_46                                            1 	(obj:1)
t_y35_135                                           1 	(obj:1)
t_y13_95                                            1 	(obj:1)
t_y46_124                                           1 	(obj:1)
t_y122_150                                          1 	(obj:1)
t_y1_132                                            1 	(obj:1)
t_y57_80                                            1 	(obj:1)
t_y21_58                                            1 	(obj:1)
t_y85_86                                            1 	(obj:1)
t_y14_82                                            1 	(obj:1)
t_y3_43                                             1 	(obj:1)
t_y68_123                                           1 	(obj:1)
t_y27_92                                            1 	(obj:1)
t_y148_153                                          1 	(obj:1)
t_y6_64                                             1 	(obj:1)
t_y64_80                                            1 	(obj:1)
t_y48_51                                            1 	(obj:1)
t_y17_82                                            1 	(obj:1)
t_y30_108                                           1 	(obj:1)
t_y55_124                                           1 	(obj:1)
t_y2_13                                             1 	(obj:1)
t_y12_125                                           1 	(obj:1)
t_y6_15                                             1 	(obj:1)
t_y80_108                                           1 	(obj:1)
t_y124_125                                          1 	(obj:1)
t_y42_140                                           1 	(obj:1)
t_y135_150                                          1 	(obj:1)
t_y85_141                                           1 	(obj:1)
t_y27_97                                            1 	(obj:1)
t_y32_128                                           1 	(obj:1)
t_y72_148                                           1 	(obj:1)
t_y21_76                                            1 	(obj:1)
t_y6_24                                             1 	(obj:1)
t_y80_121                                           1 	(obj:1)
t_y14_104                                           1 	(obj:1)
t_y17_143                                           1 	(obj:1)
t_y106_132                                          1 	(obj:1)
t_y14_61                                            1 	(obj:1)
t_y76_129                                           1 	(obj:1)
t_y30_96                                            1 	(obj:1)
t_y120_135                                          1 	(obj:1)
t_y15_131                                           1 	(obj:1)
t_y23_67                                            1 	(obj:1)
t_y39_101                                           1 	(obj:1)
t_y66_96                                            1 	(obj:1)
t_y14_73                                            1 	(obj:1)
t_y21_146                                           1 	(obj:1)
t_y50_148                                           1 	(obj:1)
t_y6_19                                             1 	(obj:1)
t_y19_144                                           1 	(obj:1)
t_y48_73                                            1 	(obj:1)
t_y97_148                                           1 	(obj:1)
t_y31_123                                           1 	(obj:1)
t_y61_142                                           1 	(obj:1)
t_y0_131                                            1 	(obj:1)
t_y41_123                                           1 	(obj:1)
t_y46_48                                            1 	(obj:1)
t_y90_129                                           1 	(obj:1)
t_y99_104                                           1 	(obj:1)
t_y66_132                                           1 	(obj:1)
t_y106_144                                          1 	(obj:1)
t_y13_48                                            1 	(obj:1)
t_y15_145                                           1 	(obj:1)
t_y44_72                                            1 	(obj:1)
t_y120_123                                          1 	(obj:1)
t_y77_144                                           1 	(obj:1)
t_y33_79                                            1 	(obj:1)
t_y124_129                                          1 	(obj:1)
t_y23_79                                            1 	(obj:1)
t_y37_65                                            1 	(obj:1)
t_y68_129                                           1 	(obj:1)
t_y47_145                                           1 	(obj:1)
t_y31_37                                            1 	(obj:1)
t_y28_125                                           1 	(obj:1)
t_y64_101                                           1 	(obj:1)
t_y66_103                                           1 	(obj:1)
t_y13_110                                           1 	(obj:1)
t_y118_150                                          1 	(obj:1)
t_y27_44                                            1 	(obj:1)
t_y22_132                                           1 	(obj:1)
t_y104_113                                          1 	(obj:1)
t_y6_48                                             1 	(obj:1)
t_y104_128                                          1 	(obj:1)
t_y6_108                                            1 	(obj:1)
t_y12_23                                            1 	(obj:1)
t_y110_119                                          1 	(obj:1)
t_y44_84                                            1 	(obj:1)
t_y44_114                                           1 	(obj:1)
t_y1_42                                             1 	(obj:1)
t_y98_99                                            1 	(obj:1)
t_y17_33                                            1 	(obj:1)
t_y42_134                                           1 	(obj:1)
t_y145_151                                          1 	(obj:1)
t_y13_15                                            1 	(obj:1)
t_y65_123                                           1 	(obj:1)
t_y24_57                                            1 	(obj:1)
t_y55_99                                            1 	(obj:1)
t_y31_131                                           1 	(obj:1)
t_y140_150                                          1 	(obj:1)
t_y110_150                                          1 	(obj:1)
t_y51_124                                           1 	(obj:1)
t_y55_66                                            1 	(obj:1)
t_y32_99                                            1 	(obj:1)
t_y121_150                                          1 	(obj:1)
t_y32_89                                            1 	(obj:1)
t_y48_99                                            1 	(obj:1)
t_y6_138                                            1 	(obj:1)
t_y39_104                                           1 	(obj:1)
t_y37_79                                            1 	(obj:1)
t_y81_135                                           1 	(obj:1)
t_y80_142                                           1 	(obj:1)
t_y70_145                                           1 	(obj:1)
t_y71_148                                           1 	(obj:1)
t_y3_119                                            1 	(obj:1)
t_y44_95                                            1 	(obj:1)
t_y61_120                                           1 	(obj:1)
t_y17_123                                           1 	(obj:1)
t_y21_50                                            1 	(obj:1)
